p cnf 7230 17
-2400 -3148 3565 0
3148 -3565 0
-2408 -3078 -3570 0
-2406 -3000 -3568 0
-2404 -3058 -3566 0
2408 -3571 0
2406 -3569 0
2404 -3567 0
3570 3571 0
3568 3569 0
3566 3567 0
3078 -3571 0
3000 -3569 0
3058 -3567 0
2412 -3573 0
3564 3565 0
-3564 -3565 0
